mixintcount/benchmarks/random_v2l/4_4_141.in
16 6
#	x1	x2	x3	x4;		0 = Real; 1 = Integer
	1	1	1	1
1	3	0	-4	7	74
1	8	8	2	5	81
1	9	-10	-7	-2	-18
1	-5	6	10	9	127
1	1	3	2	0	117
1	-2	0	-3	9	90
1	1	0	4	5	-5
1	-4	2	-9	8	-36
1	1	0	0	0	141
1	-1	0	0	0	141
1	0	1	0	0	141
1	0	-1	0	0	141
1	0	0	1	0	141
1	0	0	-1	0	141
1	0	0	0	1	141
1	0	0	0	-1	141
